pRobustCbss/GLKH-1.1/TMP/mtspf.pid11151.atsp
NAME : mtspf.pid11151.gtsp
TYPE : ATSP
DIMENSION : 29
EDGE_WEIGHT_TYPE : EXPLICIT
EDGE_WEIGHT_FORMAT : FULL_MATRIX
EDGE_WEIGHT_SECTION
999999 5268710 5468708 5468708 5468708 5368718 5368719 5368718 5368717 5368756 5368757 5368756 5368755 5368739 5368740 5368739 5368738 5368741 5368740 5368739 5368740 5368726 5368727 5368726 5368725 5368740 5368741 5368740 5368739 
5468708 999999 5268710 5468708 5468708 5368734 5368733 5368732 5368733 5368738 5368737 5368736 5368737 5368747 5368746 5368745 5368746 5368761 5368760 5368759 5368760 5368718 5368717 5368718 5368719 5368722 5368721 5368720 5368721 
5468708 5468708 999999 5268710 5468708 5368734 5368733 5368734 5368735 5368738 5368739 5368738 5368737 5368747 5368746 5368747 5368748 5368761 5368760 5368761 5368762 5368718 5368717 5368718 5368719 5368722 5368721 5368720 5368721 
5468708 5468708 5468708 999999 5268710 5368739 5368738 5368739 5368740 5368721 5368722 5368721 5368720 5368728 5368727 5368728 5368729 5368742 5368741 5368742 5368743 5368733 5368732 5368733 5368734 5368719 5368720 5368721 5368720 
5268710 5468708 5468708 5468708 999999 5368753 5368754 5368755 5368754 5468708 5468708 5468708 5468708 5368736 5368735 5368734 5368735 5368750 5368749 5368748 5368749 5368747 5368748 5368749 5368748 5368731 5368732 5368733 5368732 
5368709 5368709 5368709 5368709 5368709 999999 0 10737418 10737418 5368750 5368751 5368750 5368749 5368733 5368734 5368733 5368732 5368739 5368738 5368737 5368738 5368728 5368729 5368728 5368727 5368734 5368735 5368734 5368733 
5368709 5368709 5368709 5368709 5368709 10737418 999999 0 10737418 5368749 5368750 5368749 5368748 5368732 5368733 5368732 5368731 5368738 5368737 5368738 5368739 5368727 5368728 5368729 5368728 5368733 5368734 5368733 5368732 
5368709 5368709 5368709 5368709 5368709 10737418 10737418 999999 0 5368750 5368749 5368748 5368749 5368733 5368732 5368731 5368732 5368739 5368738 5368739 5368740 5368726 5368727 5368728 5368727 5368734 5368733 5368732 5368733 
5368709 5368709 5368709 5368709 5368709 0 10737418 10737418 999999 5368751 5368750 5368749 5368750 5368734 5368733 5368732 5368733 5368740 5368739 5368738 5368739 5368727 5368728 5368727 5368726 5368735 5368734 5368733 5368734 
5368709 5368709 5368709 5368709 5368709 5368748 5368749 5368750 5368749 999999 0 10737418 10737418 5368739 5368738 5368737 5368738 5368753 5368752 5368751 5368752 5368742 5368743 5368744 5368743 5368726 5368727 5368728 5368727 
5368709 5368709 5368709 5368709 5368709 5368749 5368750 5368751 5368750 10737418 999999 0 10737418 5368738 5368737 5368738 5368739 5368752 5368751 5368752 5368753 5368743 5368744 5368745 5368744 5368727 5368728 5368729 5368728 
5368709 5368709 5368709 5368709 5368709 5368750 5368749 5368750 5368751 10737418 10737418 999999 0 5368739 5368738 5368739 5368740 5368753 5368752 5368753 5368754 5368744 5368743 5368744 5368745 5368728 5368727 5368728 5368729 
5368709 5368709 5368709 5368709 5368709 5368749 5368748 5368749 5368750 0 10737418 10737418 999999 5368740 5368739 5368738 5368739 5368754 5368753 5368752 5368753 5368743 5368742 5368743 5368744 5368727 5368726 5368727 5368728 
5368709 5368709 5368709 5368709 5368709 5368731 5368732 5368733 5368732 5368739 5368740 5368739 5368738 999999 0 10737418 10737418 5368726 5368725 5368724 5368725 5368741 5368742 5368741 5368740 5368737 5368738 5368737 5368736 
5368709 5368709 5368709 5368709 5368709 5368732 5368733 5368734 5368733 5368738 5368739 5368740 5368739 10737418 999999 0 10737418 5368725 5368724 5368725 5368726 5368740 5368741 5368742 5368741 5368736 5368737 5368738 5368737 
5368709 5368709 5368709 5368709 5368709 5368733 5368732 5368733 5368734 5368737 5368738 5368739 5368738 10737418 10737418 999999 0 5368726 5368725 5368726 5368727 5368739 5368740 5368741 5368740 5368735 5368736 5368737 5368736 
5368709 5368709 5368709 5368709 5368709 5368732 5368731 5368732 5368733 5368738 5368739 5368738 5368737 0 10737418 10737418 999999 5368727 5368726 5368725 5368726 5368740 5368741 5368740 5368739 5368736 5368737 5368736 5368735 
5368709 5368709 5368709 5368709 5368709 5368739 5368740 5368739 5368738 5368753 5368754 5368753 5368752 5368726 5368727 5368726 5368725 999999 0 10737418 10737418 5368755 5368756 5368755 5368754 5368751 5368752 5368751 5368750 
5368709 5368709 5368709 5368709 5368709 5368738 5368739 5368740 5368739 5368752 5368753 5368754 5368753 5368725 5368726 5368727 5368726 10737418 999999 0 10737418 5368754 5368755 5368756 5368755 5368750 5368751 5368752 5368751 
5368709 5368709 5368709 5368709 5368709 5368737 5368738 5368739 5368738 5368751 5368752 5368753 5368752 5368724 5368725 5368726 5368725 10737418 10737418 999999 0 5368753 5368754 5368755 5368754 5368749 5368750 5368751 5368750 
5368709 5368709 5368709 5368709 5368709 5368738 5368739 5368738 5368737 5368752 5368753 5368752 5368751 5368725 5368726 5368725 5368724 0 10737418 10737418 999999 5368754 5368755 5368754 5368753 5368750 5368751 5368750 5368749 
5368709 5368709 5368709 5368709 5368709 5368728 5368727 5368726 5368727 5368744 5368745 5368744 5368743 5368741 5368740 5368739 5368740 5368755 5368754 5368753 5368754 999999 0 10737418 10737418 5368728 5368729 5368728 5368727 
5368709 5368709 5368709 5368709 5368709 5368727 5368726 5368727 5368728 5368743 5368744 5368743 5368742 5368740 5368739 5368740 5368741 5368754 5368753 5368754 5368755 10737418 999999 0 10737418 5368727 5368728 5368727 5368726 
5368709 5368709 5368709 5368709 5368709 5368728 5368727 5368728 5368729 5368744 5368743 5368742 5368743 5368741 5368740 5368741 5368742 5368755 5368754 5368755 5368756 10737418 10737418 999999 0 5368728 5368727 5368726 5368727 
5368709 5368709 5368709 5368709 5368709 5368729 5368728 5368727 5368728 5368745 5368744 5368743 5368744 5368742 5368741 5368740 5368741 5368756 5368755 5368754 5368755 0 10737418 10737418 999999 5368729 5368728 5368727 5368728 
5368709 5368709 5368709 5368709 5368709 5368732 5368733 5368734 5368733 5368728 5368729 5368728 5368727 5368737 5368736 5368735 5368736 5368751 5368750 5368749 5368750 5368726 5368727 5368728 5368727 999999 0 10737418 10737418 
5368709 5368709 5368709 5368709 5368709 5368733 5368734 5368735 5368734 5368727 5368728 5368727 5368726 5368736 5368735 5368736 5368737 5368750 5368749 5368750 5368751 5368727 5368728 5368729 5368728 10737418 999999 0 10737418 
5368709 5368709 5368709 5368709 5368709 5368734 5368733 5368734 5368735 5368728 5368727 5368726 5368727 5368737 5368736 5368737 5368738 5368751 5368750 5368751 5368752 5368728 5368727 5368728 5368729 10737418 10737418 999999 0 
5368709 5368709 5368709 5368709 5368709 5368733 5368732 5368733 5368734 5368729 5368728 5368727 5368728 5368738 5368737 5368736 5368737 5368752 5368751 5368750 5368751 5368727 5368726 5368727 5368728 0 10737418 10737418 999999 
EOF
