GLKH-1.1/TMP/mtspf.pid11151.tour
NAME : mtspf.pid11151.gtsp.58655905.tour
COMMENT : Length = 58655905
COMMENT : Found by LKH [Keld Helsgaun] Sat Jan 11 16:44:16 2025
TYPE : TOUR
DIMENSION : 29
TOUR_SECTION
1
2
3
4
10
11
12
13
26
27
28
29
23
24
25
22
8
9
6
7
16
17
14
15
19
20
21
18
5
-1
EOF
